p td 800 2253 
249 2
249 3
249 4
249 5
249 7
249 13
249 14
249 18
249 19
249 21
249 25
249 29
249 38
249 43
249 51
249 56
249 57
249 59
249 65
249 70
249 81
249 83
249 88
249 90
249 91
249 93
249 102
249 109
249 113
249 115
249 116
249 119
249 122
249 124
249 126
249 128
249 129
249 131
249 142
249 148
249 149
249 152
249 155
249 159
249 165
249 173
249 174
249 188
249 195
249 209
249 213
249 228
249 231
249 232
249 233
249 235
249 237
249 238
249 255
249 279
249 292
249 304
249 321
249 322
249 325
249 326
249 327
249 330
249 331
249 346
249 355
249 357
249 359
249 368
249 379
249 380
249 384
249 386
249 388
249 389
249 393
249 394
249 401
249 402
249 406
249 410
249 411
249 414
249 417
249 423
249 427
249 433
249 447
249 457
249 460
249 469
249 470
249 473
249 476
249 477
249 479
249 481
249 485
249 489
249 498
249 500
249 503
249 505
249 510
249 517
249 532
249 541
249 542
249 552
249 558
249 559
249 565
249 570
249 572
249 584
249 588
249 604
249 607
249 622
249 623
249 634
249 640
249 642
249 644
249 646
249 654
249 666
249 667
249 677
249 681
249 690
249 694
249 696
249 698
249 704
249 706
249 715
249 718
249 728
249 729
249 733
249 734
249 739
249 755
249 759
249 763
249 765
249 767
249 771
249 772
249 775
249 778
249 780
249 786
249 790
249 792
249 793
249 799
391 3
391 7
391 13
391 21
391 25
391 28
391 29
391 46
391 48
391 63
391 66
391 69
391 88
391 90
391 91
391 92
391 100
391 107
391 117
391 121
391 124
391 126
391 127
391 128
391 129
391 132
391 164
391 168
391 170
391 174
391 176
391 194
391 201
391 205
391 206
391 213
391 230
391 239
391 246
391 254
391 263
391 273
391 276
391 277
391 286
391 287
391 294
391 299
391 308
391 310
391 315
391 317
391 319
391 328
391 329
391 333
391 337
391 341
391 347
391 353
391 355
391 367
391 368
391 390
391 394
391 396
391 399
391 400
391 402
391 404
391 405
391 409
391 413
391 414
391 418
391 424
391 425
391 429
391 430
391 431
391 434
391 436
391 447
391 462
391 464
391 467
391 481
391 482
391 483
391 485
391 489
391 493
391 497
391 507
391 511
391 518
391 521
391 524
391 528
391 533
391 544
391 550
391 551
391 557
391 560
391 562
391 580
391 581
391 582
391 583
391 587
391 593
391 597
391 599
391 604
391 608
391 615
391 618
391 626
391 627
391 630
391 639
391 648
391 652
391 655
391 658
391 659
391 660
391 667
391 670
391 672
391 689
391 690
391 698
391 699
391 704
391 705
391 720
391 721
391 730
391 731
391 732
391 736
391 743
391 751
391 752
391 754
391 755
391 756
391 757
391 759
391 765
391 766
391 768
391 770
391 772
391 776
391 777
391 785
391 796
391 798
458 9
458 18
458 22
458 27
458 31
458 33
458 34
458 40
458 41
458 57
458 73
458 74
458 77
458 93
458 96
458 109
458 110
458 111
458 114
458 117
458 122
458 125
458 131
458 142
458 146
458 148
458 151
458 154
458 156
458 159
458 163
458 165
458 166
458 175
458 177
458 182
458 195
458 203
458 207
458 208
458 215
458 216
458 233
458 237
458 243
458 244
458 247
458 251
458 253
458 255
458 257
458 258
458 262
458 263
458 266
458 271
458 280
458 296
458 298
458 300
458 302
458 306
458 309
458 312
458 313
458 321
458 327
458 328
458 331
458 332
458 343
458 345
458 353
458 354
458 362
458 369
458 378
458 382
458 383
458 384
458 385
458 386
458 392
458 394
458 398
458 405
458 416
458 419
458 424
458 428
458 448
458 451
458 458
458 463
458 464
458 467
458 472
458 473
458 474
458 477
458 478
458 491
458 501
458 502
458 506
458 508
458 513
458 524
458 527
458 549
458 557
458 558
458 563
458 565
458 575
458 579
458 584
458 589
458 592
458 593
458 596
458 600
458 608
458 612
458 614
458 617
458 620
458 621
458 625
458 627
458 629
458 635
458 636
458 638
458 654
458 655
458 659
458 664
458 672
458 683
458 685
458 689
458 699
458 704
458 714
458 718
458 732
458 746
458 764
458 772
458 773
458 780
458 783
458 788
458 793
458 798
458 800
248 16
248 19
248 22
248 23
248 33
248 34
248 49
248 55
248 58
248 65
248 66
248 73
248 79
248 85
248 86
248 93
248 100
248 116
248 117
248 118
248 123
248 125
248 135
248 163
248 164
248 175
248 185
248 192
248 194
248 196
248 202
248 206
248 214
248 225
248 232
248 234
248 238
248 239
248 245
248 247
248 248
248 249
248 252
248 266
248 267
248 276
248 284
248 295
248 297
248 308
248 312
248 313
248 322
248 323
248 329
248 339
248 341
248 347
248 360
248 366
248 369
248 370
248 371
248 377
248 378
248 389
248 399
248 400
248 401
248 405
248 408
248 413
248 416
248 427
248 429
248 433
248 435
248 446
248 448
248 452
248 454
248 457
248 464
248 466
248 468
248 469
248 473
248 484
248 490
248 491
248 495
248 499
248 511
248 514
248 525
248 526
248 529
248 530
248 533
248 534
248 535
248 542
248 560
248 577
248 579
248 582
248 585
248 586
248 592
248 596
248 600
248 611
248 615
248 621
248 623
248 624
248 630
248 637
248 638
248 648
248 652
248 682
248 688
248 689
248 694
248 698
248 700
248 710
248 719
248 720
248 722
248 723
248 724
248 729
248 732
248 735
248 742
248 748
248 750
248 754
248 758
248 764
248 765
248 766
248 767
248 768
248 773
248 790
248 795
248 797
248 798
248 799
173 1
173 5
173 6
173 11
173 12
173 16
173 22
173 23
173 47
173 50
173 51
173 68
173 80
173 86
173 95
173 104
173 110
173 112
173 115
173 118
173 126
173 132
173 137
173 139
173 144
173 149
173 152
173 154
173 162
173 165
173 171
173 175
173 180
173 185
173 188
173 190
173 192
173 195
173 196
173 199
173 202
173 206
173 211
173 212
173 214
173 216
173 217
173 219
173 220
173 235
173 239
173 240
173 244
173 245
173 249
173 254
173 268
173 270
173 279
173 281
173 282
173 302
173 304
173 306
173 312
173 319
173 326
173 331
173 339
173 341
173 349
173 353
173 362
173 372
173 377
173 378
173 388
173 394
173 395
173 397
173 399
173 402
173 404
173 406
173 411
173 418
173 419
173 420
173 422
173 426
173 432
173 442
173 444
173 458
173 464
173 473
173 476
173 482
173 485
173 487
173 492
173 500
173 502
173 504
173 515
173 523
173 532
173 533
173 538
173 540
173 549
173 551
173 557
173 558
173 560
173 570
173 571
173 574
173 575
173 582
173 583
173 587
173 591
173 595
173 596
173 601
173 602
173 607
173 610
173 616
173 618
173 620
173 625
173 627
173 628
173 632
173 634
173 638
173 642
173 646
173 647
173 648
173 655
173 657
173 663
173 664
173 676
173 677
173 680
173 683
173 690
173 691
173 694
173 696
173 697
173 710
173 711
173 716
173 717
173 719
173 720
173 725
173 729
173 732
173 733
173 750
173 753
173 754
173 763
173 766
173 767
173 768
173 769
173 770
173 771
173 776
173 779
173 784
173 785
173 789
173 790
173 792
173 794
173 798
173 799
173 800
774 5
774 7
774 8
774 9
774 16
774 24
774 40
774 41
774 47
774 49
774 53
774 56
774 57
774 58
774 60
774 70
774 78
774 83
774 86
774 87
774 89
774 95
774 99
774 109
774 110
774 113
774 116
774 117
774 118
774 120
774 123
774 124
774 129
774 132
774 134
774 138
774 144
774 148
774 163
774 168
774 170
774 175
774 178
774 200
774 203
774 212
774 215
774 217
774 222
774 227
774 245
774 250
774 262
774 265
774 268
774 279
774 282
774 286
774 300
774 314
774 315
774 318
774 335
774 344
774 350
774 351
774 355
774 358
774 359
774 360
774 362
774 365
774 366
774 368
774 372
774 374
774 384
774 397
774 398
774 401
774 433
774 439
774 442
774 443
774 444
774 446
774 448
774 449
774 455
774 462
774 463
774 464
774 465
774 472
774 482
774 490
774 495
774 513
774 514
774 515
774 516
774 520
774 538
774 544
774 550
774 568
774 569
774 570
774 576
774 579
774 580
774 585
774 588
774 590
774 591
774 598
774 603
774 604
774 617
774 624
774 625
774 627
774 628
774 630
774 637
774 638
774 641
774 644
774 649
774 656
774 657
774 663
774 665
774 667
774 671
774 673
774 676
774 689
774 703
774 716
774 719
774 729
774 730
774 733
774 734
774 736
774 739
774 748
774 754
774 772
774 773
774 786
774 787
774 788
774 792
774 799
236 3
236 7
236 26
236 32
236 35
236 36
236 39
236 42
236 43
236 44
236 49
236 55
236 64
236 74
236 78
236 85
236 86
236 88
236 103
236 110
236 118
236 122
236 124
236 125
236 126
236 130
236 135
236 138
236 140
236 153
236 155
236 162
236 163
236 168
236 183
236 194
236 199
236 201
236 208
236 209
236 214
236 217
236 220
236 222
236 227
236 233
236 241
236 243
236 253
236 266
236 269
236 279
236 283
236 287
236 304
236 309
236 310
236 314
236 315
236 318
236 323
236 347
236 351
236 359
236 363
236 366
236 368
236 371
236 373
236 376
236 381
236 387
236 388
236 392
236 394
236 405
236 413
236 426
236 430
236 431
236 444
236 446
236 447
236 450
236 453
236 454
236 459
236 467
236 469
236 473
236 474
236 479
236 481
236 497
236 504
236 507
236 509
236 510
236 517
236 518
236 522
236 528
236 533
236 535
236 543
236 544
236 549
236 550
236 568
236 575
236 587
236 590
236 594
236 597
236 606
236 607
236 608
236 620
236 631
236 634
236 648
236 655
236 657
236 658
236 670
236 675
236 679
236 680
236 681
236 682
236 687
236 688
236 691
236 692
236 695
236 702
236 706
236 708
236 712
236 718
236 722
236 745
236 753
236 754
236 758
236 761
236 767
236 772
236 773
236 778
236 781
236 783
236 787
236 789
22 1
22 4
22 16
22 29
22 34
22 38
22 40
22 44
22 59
22 60
22 70
22 72
22 100
22 101
22 112
22 117
22 121
22 127
22 129
22 130
22 131
22 139
22 151
22 152
22 157
22 158
22 159
22 161
22 174
22 184
22 185
22 191
22 192
22 197
22 201
22 206
22 216
22 220
22 224
22 234
22 237
22 244
22 251
22 256
22 261
22 280
22 289
22 301
22 302
22 313
22 316
22 323
22 327
22 334
22 336
22 337
22 338
22 349
22 350
22 358
22 365
22 368
22 370
22 379
22 382
22 386
22 389
22 393
22 395
22 404
22 405
22 406
22 408
22 409
22 412
22 424
22 433
22 437
22 439
22 445
22 448
22 461
22 465
22 477
22 479
22 482
22 487
22 490
22 508
22 511
22 519
22 533
22 535
22 543
22 550
22 557
22 564
22 568
22 570
22 572
22 573
22 587
22 592
22 593
22 595
22 599
22 602
22 607
22 619
22 620
22 623
22 624
22 627
22 636
22 643
22 649
22 658
22 660
22 661
22 663
22 667
22 677
22 684
22 693
22 710
22 717
22 724
22 728
22 745
22 747
22 749
22 758
22 762
22 767
22 768
22 769
22 773
22 780
22 785
22 795
22 797
22 798
22 799
154 8
154 26
154 27
154 31
154 34
154 40
154 47
154 55
154 58
154 70
154 72
154 87
154 91
154 92
154 94
154 104
154 111
154 114
154 116
154 120
154 121
154 125
154 126
154 131
154 132
154 144
154 147
154 159
154 163
154 168
154 173
154 174
154 177
154 178
154 180
154 186
154 193
154 200
154 213
154 222
154 224
154 226
154 227
154 228
154 232
154 234
154 244
154 246
154 247
154 249
154 254
154 256
154 269
154 271
154 274
154 279
154 283
154 287
154 289
154 291
154 296
154 308
154 313
154 321
154 322
154 324
154 326
154 334
154 350
154 354
154 361
154 364
154 371
154 376
154 377
154 378
154 382
154 388
154 393
154 396
154 398
154 399
154 401
154 403
154 411
154 430
154 431
154 435
154 441
154 443
154 448
154 449
154 453
154 454
154 459
154 461
154 471
154 473
154 480
154 482
154 485
154 506
154 512
154 513
154 519
154 520
154 522
154 523
154 527
154 534
154 537
154 548
154 554
154 557
154 562
154 567
154 568
154 586
154 594
154 595
154 596
154 601
154 608
154 613
154 617
154 618
154 619
154 624
154 628
154 632
154 635
154 636
154 642
154 649
154 657
154 664
154 666
154 669
154 680
154 684
154 687
154 694
154 702
154 709
154 710
154 716
154 718
154 727
154 730
154 735
154 739
154 741
154 751
154 756
154 774
154 775
154 777
154 786
154 797
79 4
79 9
79 13
79 15
79 17
79 19
79 23
79 27
79 30
79 32
79 39
79 41
79 42
79 47
79 50
79 58
79 66
79 67
79 78
79 82
79 85
79 93
79 95
79 101
79 113
79 115
79 117
79 124
79 131
79 135
79 138
79 142
79 143
79 145
79 155
79 166
79 181
79 182
79 185
79 188
79 207
79 208
79 213
79 215
79 216
79 221
79 231
79 239
79 244
79 247
79 251
79 253
79 260
79 265
79 271
79 272
79 287
79 289
79 308
79 318
79 322
79 326
79 331
79 334
79 349
79 353
79 354
79 363
79 371
79 380
79 381
79 386
79 389
79 391
79 396
79 404
79 411
79 412
79 414
79 431
79 432
79 438
79 445
79 449
79 450
79 451
79 455
79 456
79 457
79 458
79 459
79 463
79 468
79 470
79 471
79 472
79 479
79 487
79 488
79 492
79 499
79 502
79 504
79 506
79 508
79 513
79 515
79 522
79 525
79 526
79 537
79 541
79 546
79 547
79 548
79 552
79 553
79 554
79 558
79 559
79 561
79 564
79 568
79 569
79 571
79 575
79 576
79 584
79 588
79 591
79 605
79 614
79 616
79 618
79 620
79 621
79 622
79 623
79 625
79 626
79 632
79 636
79 649
79 661
79 663
79 674
79 683
79 691
79 694
79 696
79 697
79 699
79 701
79 710
79 714
79 715
79 717
79 721
79 730
79 731
79 737
79 740
79 747
79 760
79 762
79 763
79 769
79 776
79 783
79 785
79 786
79 789
75 11
75 14
75 21
75 22
75 29
75 31
75 32
75 44
75 47
75 52
75 56
75 64
75 65
75 68
75 84
75 93
75 98
75 105
75 107
75 114
75 116
75 118
75 126
75 131
75 136
75 157
75 160
75 167
75 173
75 175
75 176
75 184
75 195
75 197
75 203
75 208
75 218
75 219
75 222
75 233
75 235
75 238
75 249
75 252
75 254
75 258
75 259
75 265
75 278
75 279
75 282
75 296
75 300
75 301
75 315
75 317
75 322
75 329
75 333
75 335
75 348
75 358
75 369
75 388
75 391
75 394
75 396
75 399
75 414
75 416
75 421
75 437
75 438
75 439
75 443
75 452
75 453
75 462
75 466
75 478
75 487
75 488
75 489
75 491
75 497
75 498
75 504
75 510
75 517
75 524
75 528
75 530
75 532
75 535
75 553
75 557
75 561
75 571
75 572
75 574
75 578
75 582
75 584
75 588
75 590
75 592
75 594
75 595
75 602
75 603
75 613
75 614
75 635
75 637
75 640
75 641
75 649
75 650
75 656
75 662
75 663
75 664
75 670
75 673
75 675
75 681
75 689
75 691
75 693
75 703
75 705
75 709
75 712
75 721
75 731
75 738
75 745
75 746
75 747
75 751
75 758
75 761
75 764
75 773
75 778
75 781
75 784
75 788
75 797
780 3
780 6
780 8
780 24
780 28
780 43
780 48
780 50
780 52
780 54
780 55
780 72
780 74
780 84
780 85
780 95
780 97
780 105
780 109
780 113
780 116
780 125
780 126
780 128
780 132
780 134
780 135
780 140
780 153
780 161
780 169
780 177
780 181
780 187
780 190
780 192
780 193
780 197
780 200
780 207
780 213
780 217
780 220
780 222
780 223
780 226
780 230
780 240
780 241
780 242
780 243
780 248
780 254
780 256
780 260
780 264
780 284
780 289
780 293
780 304
780 320
780 321
780 325
780 327
780 330
780 333
780 334
780 342
780 349
780 351
780 353
780 356
780 357
780 359
780 363
780 368
780 378
780 387
780 395
780 400
780 410
780 411
780 417
780 420
780 422
780 424
780 427
780 430
780 440
780 446
780 450
780 455
780 456
780 462
780 468
780 473
780 474
780 475
780 480
780 489
780 499
780 502
780 508
780 510
780 518
780 527
780 529
780 530
780 532
780 542
780 550
780 554
780 560
780 562
780 563
780 569
780 573
780 580
780 588
780 589
780 595
780 599
780 607
780 612
780 615
780 616
780 626
780 630
780 632
780 634
780 639
780 642
780 648
780 657
780 661
780 689
780 694
780 697
780 705
780 711
780 716
780 722
780 726
780 733
780 735
780 742
780 746
780 748
780 757
780 758
780 762
780 770
780 776
780 781
780 782
780 790
780 792
780 794
780 795
780 799
380 1
380 11
380 12
380 13
380 14
380 19
380 28
380 30
380 32
380 36
380 54
380 57
380 59
380 65
380 76
380 77
380 79
380 82
380 88
380 91
380 93
380 100
380 103
380 107
380 111
380 117
380 122
380 124
380 138
380 142
380 150
380 156
380 160
380 173
380 182
380 187
380 190
380 197
380 209
380 214
380 216
380 220
380 226
380 247
380 249
380 255
380 256
380 266
380 268
380 270
380 274
380 276
380 277
380 286
380 287
380 289
380 290
380 293
380 296
380 297
380 298
380 303
380 304
380 309
380 311
380 320
380 338
380 340
380 350
380 352
380 359
380 370
380 376
380 392
380 395
380 408
380 410
380 415
380 417
380 418
380 422
380 423
380 432
380 433
380 435
380 436
380 437
380 439
380 440
380 444
380 449
380 458
380 463
380 470
380 477
380 489
380 490
380 492
380 494
380 509
380 511
380 512
380 525
380 533
380 541
380 549
380 551
380 553
380 556
380 557
380 558
380 563
380 564
380 567
380 570
380 571
380 574
380 584
380 591
380 597
380 602
380 603
380 604
380 609
380 624
380 625
380 628
380 631
380 632
380 636
380 637
380 643
380 646
380 659
380 664
380 667
380 680
380 682
380 686
380 707
380 714
380 723
380 727
380 733
380 734
380 736
380 739
380 744
380 745
380 747
380 751
380 756
380 762
380 772
380 774
380 784
380 785
380 786
380 789
380 792
380 796
380 800
212 7
212 10
212 15
212 17
212 18
212 25
212 28
212 32
212 41
212 42
212 49
212 54
212 58
212 59
212 69
212 70
212 78
212 82
212 83
212 85
212 89
212 95
212 98
212 100
212 101
212 102
212 103
212 104
212 112
212 117
212 119
212 120
212 127
212 132
212 134
212 136
212 137
212 145
212 147
212 153
212 155
212 156
212 159
212 161
212 176
212 181
212 182
212 187
212 188
212 193
212 198
212 204
212 214
212 217
212 224
212 228
212 235
212 237
212 238
212 240
212 246
212 248
212 255
212 262
212 263
212 265
212 267
212 268
212 275
212 284
212 306
212 325
212 335
212 340
212 341
212 342
212 344
212 349
212 363
212 366
212 367
212 369
212 371
212 381
212 400
212 401
212 406
212 408
212 410
212 411
212 412
212 416
212 418
212 420
212 422
212 437
212 441
212 449
212 455
212 459
212 467
212 469
212 471
212 482
212 487
212 490
212 491
212 498
212 500
212 503
212 508
212 511
212 512
212 519
212 520
212 526
212 527
212 532
212 533
212 534
212 535
212 537
212 542
212 543
212 549
212 550
212 551
212 558
212 561
212 562
212 568
212 570
212 576
212 578
212 584
212 585
212 586
212 587
212 590
212 592
212 598
212 606
212 607
212 608
212 609
212 610
212 617
212 618
212 621
212 622
212 625
212 627
212 634
212 639
212 654
212 664
212 665
212 667
212 678
212 680
212 682
212 696
212 698
212 700
212 711
212 716
212 718
212 737
212 739
212 746
212 752
212 758
212 765
212 767
212 784
212 785
212 789
212 793
212 796
